Route #1: 1 24 52 21 43 67 69 72 17
Route #2: 58 38 56 8 22 71 12 34 15
Route #3: 51 45 46 31 20 54 3
Route #4: 57 7 76 73 32 29 75
Route #5: 63 5 30 70 37 49
Route #6: 2 27 47 65 62 6
Route #7: 50 61 39 48 13 4 28 19 9
Route #8: 74 33 55 35 59 36 14 41
Route #9: 53 68 10 25 18 16 66 60
Route #10: 42 40 64 11 26 44 23 77
Cost 1284